32	0

0	1	2
10	2	3	4
4	1	5
8	1	5
4	1	6
1	2	7	8
9	1	9
5	1	9
9	1	10
9	1	11
2	1	12
2	1	13
6	2	14	15
8	1	16
9	1	16
5	1	17
2	2	18	19
10	1	21
4	2	20	21
7	1	22
5	1	22
10	1	23
3	1	24
9	1	25
8	1	26
5	2	27	29
6	1	28
4	1	30
7	1	30
4	1	31
3	1	32
0	0
